Gurobi Optimizer version 9.1.2 build v9.1.2rc0 (linux64)
Thread count: 36 physical cores, 72 logical processors, using up to 32 threads
Optimize a model with 12 rows, 57 columns and 590 nonzeros
Model fingerprint: 0xf32eec78
Model has 47 quadratic constraints
Coefficient statistics:
  Matrix range     [2e-05, 3e+00]
  QMatrix range    [1e+00, 1e+00]
  QLMatrix range   [1e+00, 1e+00]
  Objective range  [8e-03, 7e-01]
  Bounds range     [1e+00, 1e+00]
  RHS range        [1e+00, 1e+00]
Presolve removed 9 rows and 0 columns

Continuous model is non-convex -- solving as a MIP.

Presolve removed 9 rows and 0 columns
Presolve time: 0.00s
Presolved: 189 rows, 57 columns, 443 nonzeros
Presolved model has 47 bilinear constraint(s)
Variable types: 57 continuous, 0 integer (0 binary)

Root relaxation: objective -1.743721e+00, 44 iterations, 0.00 seconds

    Nodes    |    Current Node    |     Objective Bounds      |     Work
 Expl Unexpl |  Obj  Depth IntInf | Incumbent    BestBd   Gap | It/Node Time

     0     0   -1.74372    0   38          -   -1.74372      -     -    0s
H    0     0                       0.6147548   -1.74372   384%     -    0s
     0     0   -1.64739    0    1    0.61475   -1.64739   368%     -    0s
H    0     0                      -1.6450460   -1.64739  0.14%     -    0s
     0     0     cutoff    0        -1.64505   -1.64505  0.00%     -    0s

Cutting planes:
  RLT: 25
  BQP: 3

Explored 1 nodes (76 simplex iterations) in 0.01 seconds
Thread count was 32 (of 72 available processors)

Solution count 2: -1.64505 0.614755 
No other solutions better than -1.64505

Optimal solution found (tolerance 1.00e-04)
Best objective -1.645045978473e+00, best bound -1.645045978473e+00, gap 0.0000%

User-callback calls 78, time in user-callback 0.00 sec
Gurobi Optimizer version 9.1.2 build v9.1.2rc0 (linux64)
Thread count: 36 physical cores, 72 logical processors, using up to 32 threads
Optimize a model with 24 rows, 125 columns and 2580 nonzeros
Model fingerprint: 0xcd9afdba
Model has 105 quadratic constraints
Coefficient statistics:
  Matrix range     [7e-06, 5e+01]
  QMatrix range    [1e+00, 1e+00]
  QLMatrix range   [1e+00, 1e+00]
  Objective range  [2e-02, 1e+00]
  Bounds range     [1e+00, 1e+00]
  RHS range        [1e+00, 1e+00]
Presolve removed 10 rows and 0 columns

Continuous model is non-convex -- solving as a MIP.

Presolve removed 10 rows and 0 columns
Presolve time: 0.00s
Presolved: 429 rows, 125 columns, 2142 nonzeros
Presolved model has 105 bilinear constraint(s)
Variable types: 125 continuous, 0 integer (0 binary)

Root relaxation: objective -6.752123e+00, 138 iterations, 0.00 seconds

    Nodes    |    Current Node    |     Objective Bounds      |     Work
 Expl Unexpl |  Obj  Depth IntInf | Incumbent    BestBd   Gap | It/Node Time

     0     0   -6.75212    0   95          -   -6.75212      -     -    0s
H    0     0                      -0.0886748   -6.75212  7514%     -    0s
     0     0   -5.61903    0   83   -0.08867   -5.61903  6237%     -    0s
H    0     0                      -2.5835051   -5.61903   117%     -    0s
     0     0   -5.60582    0   83   -2.58351   -5.60582   117%     -    0s
     0     0   -5.29475    0   83   -2.58351   -5.29475   105%     -    0s
H    0     0                      -2.7698281   -5.29475  91.2%     -    0s
     0     0   -5.26229    0   83   -2.76983   -5.26229  90.0%     -    0s
     0     0   -5.21246    0   83   -2.76983   -5.21246  88.2%     -    0s
     0     0   -5.20961    0   83   -2.76983   -5.20961  88.1%     -    0s
     0     0   -5.20352    0   83   -2.76983   -5.20352  87.9%     -    0s
     0     0   -5.20100    0   83   -2.76983   -5.20100  87.8%     -    0s
     0     0   -5.19755    0   83   -2.76983   -5.19755  87.6%     -    0s
     0     0   -5.19719    0   83   -2.76983   -5.19719  87.6%     -    0s
     0     0   -5.19648    0   83   -2.76983   -5.19648  87.6%     -    0s
     0     0   -5.19647    0   83   -2.76983   -5.19647  87.6%     -    0s
     0     0   -5.19618    0   83   -2.76983   -5.19618  87.6%     -    0s
H    0     0                      -3.8391635   -5.19618  35.3%     -    0s
H    0     0                      -4.3015060   -5.19618  20.8%     -    0s
H    0     0                      -4.3363484   -5.19618  19.8%     -    0s
     0     2   -5.19618    0   83   -4.33635   -5.19618  19.8%     -    0s
*  660   229              23      -4.4058239   -4.80382  9.03%  30.6    0s
*  764   204              24      -4.4071274   -4.80382  9.00%  28.3    0s
*  888   286              18      -4.4371848   -4.59859  3.64%  25.5    0s
* 1140    48              18      -4.4373569   -4.50159  1.45%  21.3    0s
* 1299     0              19      -4.4374323   -4.47156  0.77%  18.9    0s
* 1302     0              19      -4.4374603   -4.47156  0.77%  18.9    0s
* 1303     0              19      -4.4374612   -4.47156  0.77%  18.9    0s

Cutting planes:
  RLT: 57
  BQP: 8
  PSD: 52

Explored 1337 nodes (24995 simplex iterations) in 0.57 seconds
Thread count was 32 (of 72 available processors)

Solution count 10: -4.43746 -4.43746 -4.43743 ... -3.83916
No other solutions better than -4.43746

Optimal solution found (tolerance 1.00e-04)
Best objective -4.437461232460e+00, best bound -4.437461232460e+00, gap 0.0000%

User-callback calls 2944, time in user-callback 0.00 sec



objective value: -4.437461232460361
objective bound: -4.437461232460361
x_opt: [0.08639966870138492, 0.0, 0.3536841684452344, 0.0, 1.0, 0.0, 1.0, 1.0, 1.0, 0.0, 0.0, 1.0, 0.2850194694281505, 0.0, 0.0, 0.05740417095399113, 0.0, 0.0, 0.0, 0.0]
GUROBI solution time: 0.5675649642944336




